
Minimize
 obj: x__E_8_
Subject To
1 x__0_0_ + 1 x__0_1_ + 1 x__0_2_ + 1 x__0_3_ + 1 x__0_4_ + 1 x__0_5_ = 1
1 x__0_1_ + 2 x__0_2_ + 3 x__0_3_ + 4 x__0_4_ + 5 x__0_5_ + -1 x__E_0_ = 0
1 x__1_0_ + 1 x__1_1_ + 1 x__1_2_ + 1 x__1_3_ + 1 x__1_4_ + 1 x__1_5_ = 10
1 x__1_1_ + 2 x__1_2_ + 3 x__1_3_ + 4 x__1_4_ + 5 x__1_5_ + -10 x__E_1_ = 0
1 x__2_0_ + 1 x__2_1_ + 1 x__2_2_ + 1 x__2_3_ + 1 x__2_4_ + 1 x__2_5_ = 45
1 x__2_1_ + 2 x__2_2_ + 3 x__2_3_ + 4 x__2_4_ + 5 x__2_5_ + -45 x__E_2_ = 0
1 x__3_0_ + 1 x__3_1_ + 1 x__3_2_ + 1 x__3_3_ + 1 x__3_4_ + 1 x__3_5_ = 120
1 x__3_1_ + 2 x__3_2_ + 3 x__3_3_ + 4 x__3_4_ + 5 x__3_5_ + -120 x__E_3_ = 0
1 x__4_0_ + 1 x__4_1_ + 1 x__4_2_ + 1 x__4_3_ + 1 x__4_4_ + 1 x__4_5_ = 210
1 x__4_1_ + 2 x__4_2_ + 3 x__4_3_ + 4 x__4_4_ + 5 x__4_5_ + -210 x__E_4_ = 0
1 x__5_0_ + 1 x__5_1_ + 1 x__5_2_ + 1 x__5_3_ + 1 x__5_4_ + 1 x__5_5_ = 252
1 x__5_1_ + 2 x__5_2_ + 3 x__5_3_ + 4 x__5_4_ + 5 x__5_5_ + -252 x__E_5_ = 0
1 x__6_0_ + 1 x__6_1_ + 1 x__6_2_ + 1 x__6_3_ + 1 x__6_4_ + 1 x__6_5_ = 210
1 x__6_1_ + 2 x__6_2_ + 3 x__6_3_ + 4 x__6_4_ + 5 x__6_5_ + -210 x__E_6_ = 0
1 x__7_0_ + 1 x__7_1_ + 1 x__7_2_ + 1 x__7_3_ + 1 x__7_4_ + 1 x__7_5_ = 120
1 x__7_1_ + 2 x__7_2_ + 3 x__7_3_ + 4 x__7_4_ + 5 x__7_5_ + -120 x__E_7_ = 0
1 x__8_0_ + 1 x__8_1_ + 1 x__8_2_ + 1 x__8_3_ + 1 x__8_4_ + 1 x__8_5_ = 45
1 x__8_1_ + 2 x__8_2_ + 3 x__8_3_ + 4 x__8_4_ + 5 x__8_5_ + -45 x__E_8_ = 0
1 x__9_0_ + 1 x__9_1_ + 1 x__9_2_ + 1 x__9_3_ + 1 x__9_4_ + 1 x__9_5_ = 10
1 x__9_1_ + 2 x__9_2_ + 3 x__9_3_ + 4 x__9_4_ + 5 x__9_5_ + -10 x__E_9_ = 0
1 x__10_0_ + 1 x__10_1_ + 1 x__10_2_ + 1 x__10_3_ + 1 x__10_4_ + 1 x__10_5_ = 1
1 x__10_1_ + 2 x__10_2_ + 3 x__10_3_ + 4 x__10_4_ + 5 x__10_5_ + -1 x__E_10_ = 0
1 x__0_0_ + 1 x__1_0_ + 1 x__2_0_ + 1 x__3_0_ + 1 x__4_0_ + 1 x__5_0_ + 1 x__6_0_ + 1 x__7_0_ + 1 x__8_0_ + 1 x__9_0_ + 1 x__10_0_ <= 1
1 x__0_1_ + 1 x__1_1_ + 1 x__2_1_ + 1 x__3_1_ + 1 x__4_1_ + 1 x__5_1_ + 1 x__6_1_ + 1 x__7_1_ + 1 x__8_1_ + 1 x__9_1_ + 1 x__10_1_ <= 1024
1 x__0_2_ + 1 x__1_2_ + 1 x__2_2_ + 1 x__3_2_ + 1 x__4_2_ + 1 x__5_2_ + 1 x__6_2_ + 1 x__7_2_ + 1 x__8_2_ + 1 x__9_2_ + 1 x__10_2_ <= 2097152
1 x__0_3_ + 1 x__1_3_ + 1 x__2_3_ + 1 x__3_3_ + 1 x__4_3_ + 1 x__5_3_ + 1 x__6_3_ + 1 x__7_3_ + 1 x__8_3_ + 1 x__9_3_ + 1 x__10_3_ <= 8589934592
1 x__0_4_ + 1 x__1_4_ + 1 x__2_4_ + 1 x__3_4_ + 1 x__4_4_ + 1 x__5_4_ + 1 x__6_4_ + 1 x__7_4_ + 1 x__8_4_ + 1 x__9_4_ + 1 x__10_4_ <= 70368744177664
1 x__0_5_ + 1 x__1_5_ + 1 x__2_5_ + 1 x__3_5_ + 1 x__4_5_ + 1 x__5_5_ + 1 x__6_5_ + 1 x__7_5_ + 1 x__8_5_ + 1 x__9_5_ + 1 x__10_5_ <= 1152921504606846976
Bounds
0 <= x__E_0_
0 <= x__E_1_
0 <= x__E_2_
0 <= x__E_3_
0 <= x__E_4_
0 <= x__E_5_
0 <= x__E_6_
0 <= x__E_7_
0 <= x__E_8_
0 <= x__E_9_
0 <= x__E_10_
0 <= x__0_0_
0 <= x__0_1_
0 <= x__0_2_
0 <= x__0_3_
0 <= x__0_4_
0 <= x__0_5_
0 <= x__1_0_
0 <= x__1_1_
0 <= x__1_2_
0 <= x__1_3_
0 <= x__1_4_
0 <= x__1_5_
0 <= x__2_0_
0 <= x__2_1_
0 <= x__2_2_
0 <= x__2_3_
0 <= x__2_4_
0 <= x__2_5_
0 <= x__3_0_
0 <= x__3_1_
0 <= x__3_2_
0 <= x__3_3_
0 <= x__3_4_
0 <= x__3_5_
0 <= x__4_0_
0 <= x__4_1_
0 <= x__4_2_
0 <= x__4_3_
0 <= x__4_4_
0 <= x__4_5_
0 <= x__5_0_
0 <= x__5_1_
0 <= x__5_2_
0 <= x__5_3_
0 <= x__5_4_
0 <= x__5_5_
0 <= x__6_0_
0 <= x__6_1_
0 <= x__6_2_
0 <= x__6_3_
0 <= x__6_4_
0 <= x__6_5_
0 <= x__7_0_
0 <= x__7_1_
0 <= x__7_2_
0 <= x__7_3_
0 <= x__7_4_
0 <= x__7_5_
0 <= x__8_0_
0 <= x__8_1_
0 <= x__8_2_
0 <= x__8_3_
0 <= x__8_4_
0 <= x__8_5_
0 <= x__9_0_
0 <= x__9_1_
0 <= x__9_2_
0 <= x__9_3_
0 <= x__9_4_
0 <= x__9_5_
0 <= x__10_0_
0 <= x__10_1_
0 <= x__10_2_
0 <= x__10_3_
0 <= x__10_4_
0 <= x__10_5_
End
